(set-logic QF_BV)
(declare-fun x0 () (_ BitVec 33))
(declare-fun x1 () (_ BitVec 33))
(declare-fun x2 () (_ BitVec 33))
(declare-fun x3 () (_ BitVec 33))
(declare-fun x4 () (_ BitVec 33))
(declare-fun x5 () (_ BitVec 33))
(assert (= x4 (bvmul x0 x3)))
(assert (= x5 (bvmul x3 x1)))
(assert (= x2 (bvadd x4 x5)))
(assert (= (_ bv0 33) (bvadd x0 x1)))
(assert (= false (= x2 (_ bv0 33))))
(check-sat)
(exit)
